Ba1 Ti1 O3                              
   1.00000000000000     
     3.9828134816045715    0.0000000000000000    0.0000000000000000
     0.0000000000000000    3.9828134816045715    0.0000000000000000
     0.0000000000000000    0.0000000000000000    4.0285656263736964
   Ba   Ti   O 
     1     1     3
Selective dynamics
Direct
  0.0000000000000000  0.0000000000000000  0.0000000000000000   F   F   F
  0.5000000000000000  0.5000000000000000  0.5114701101020218   T   T   T
  0.0000000000000000  0.5000000000000000  0.4877230083138231   T   T   T
  0.5000000000000000  0.0000000000000000  0.4877230083138231   T   T   T
  0.5000000000000000  0.5000000000000000  0.9817057101742763   T   T   T
 
  0.00000000E+00  0.00000000E+00  0.00000000E+00
  0.00000000E+00  0.00000000E+00  0.00000000E+00
  0.00000000E+00  0.00000000E+00  0.00000000E+00
  0.00000000E+00  0.00000000E+00  0.00000000E+00
  0.00000000E+00  0.00000000E+00  0.00000000E+00
