Ba3 Ti3 O9
1.0
5.655924 0.000000 -0.000000
-2.827962 4.898174 0.000000
0.000000 0.000000 6.938231
Ba Ti O
3 3 9
direct
0.000884 0.000000 -0.003665 Ba
0.666667 0.333333 0.329668 Ba
0.333333 0.666667 0.663002 Ba
-0.000000 0.000000 0.504490 Ti
0.666667 0.333333 0.837823 Ti
0.333333 0.666667 0.171157 Ti
0.834596 0.669192 0.653558 O
0.330808 0.165404 0.653558 O
0.834596 0.165404 0.653558 O
0.501263 0.002525 0.986891 O
0.997475 0.498737 0.986891 O
0.501263 0.498737 0.986891 O
0.167930 0.335858 0.320224 O
0.664142 0.832070 0.320224 O
0.167930 0.832070 0.320224 O

0.000000 0.000000 0.000000
0.000000 0.000000 0.000000
0.000000 0.000000 0.000000
0.000000 0.000000 0.000000
0.000000 0.000000 0.000000
0.000000 0.000000 0.000000
0.000000 0.000000 0.000000
0.000000 0.000000 0.000000
0.000000 0.000000 0.000000
0.000000 0.000000 0.000000
0.000000 0.000000 0.000000
0.000000 0.000000 0.000000
0.000000 0.000000 0.000000
0.000000 0.000000 0.000000
0.000000 0.000000 0.000000
